
Gurobi 9.5.1 (linux64) logging started Thu Jun  2 01:06:10 2022

Set parameter LogFile to value "../results/logs/log_CA-HepPh_4_250_2022_06_02_01_06.log"
Gurobi Optimizer version 9.5.1 build v9.5.1rc2 (linux64)
Thread count: 8 physical cores, 8 logical processors, using up to 8 threads
Optimize a model with 24013 rows, 24012 columns and 521980 nonzeros
Model fingerprint: 0xbf92ce11
Variable types: 0 continuous, 24012 integer (24012 binary)
Coefficient statistics:
  Matrix range     [1e+00, 4e+00]
  Objective range  [1e+00, 1e+00]
  Bounds range     [1e+00, 1e+00]
  RHS range        [1e+00, 2e+02]
Found heuristic solution: objective -0.0000000
Presolve removed 9588 rows and 6652 columns
Presolve time: 1.12s
Presolved: 14425 rows, 17360 columns, 478193 nonzeros
Variable types: 0 continuous, 17360 integer (16634 binary)
Found heuristic solution: objective 4425.0000000

Deterministic concurrent LP optimizer: primal and dual simplex
Showing first log only...

Concurrent spin time: 0.00s

Solved with dual simplex

Root relaxation: objective 7.114500e+03, 1262 iterations, 0.30 seconds (0.49 work units)

    Nodes    |    Current Node    |     Objective Bounds      |     Work
 Expl Unexpl |  Obj  Depth IntInf | Incumbent    BestBd   Gap | It/Node Time

     0     0 7114.50000    0  304 4425.00000 7114.50000  60.8%     -    1s
H    0     0                    6911.0000000 7114.50000  2.94%     -    1s
H    0     0                    6919.0000000 7114.50000  2.83%     -    1s
H    0     0                    6927.0000000 7114.50000  2.71%     -    3s
H    0     0                    6961.0000000 7114.50000  2.21%     -    3s
H    0     0                    6963.0000000 7114.50000  2.18%     -    3s
H    0     0                    6965.0000000 7114.50000  2.15%     -    3s
H    0     0                    6966.0000000 7114.50000  2.13%     -    3s
H    0     0                    6969.0000000 7114.50000  2.09%     -    3s
H    0     0                    6970.0000000 7114.50000  2.07%     -    3s
H    0     0                    6977.0000000 7114.44028  1.97%     -    3s
     0     0 7000.76237    0  264 6977.00000 7000.76237  0.34%     -    3s
H    0     0                    6978.0000000 7000.76237  0.33%     -    3s
     0     0 7000.41172    0  194 6978.00000 7000.41172  0.32%     -    3s
     0     0 6999.68759    0  181 6978.00000 6999.68759  0.31%     -    3s
     0     0 6999.50079    0  180 6978.00000 6999.50079  0.31%     -    4s
     0     0 6982.54622    0   73 6978.00000 6982.54622  0.07%     -    4s
     0     0 6980.03708    0   58 6978.00000 6980.03708  0.03%     -    4s
     0     0 6979.70375    0   50 6978.00000 6979.70375  0.02%     -    4s
     0     0     cutoff    0      6978.00000 6978.00000  0.00%     -    4s

Cutting planes:
  Gomory: 269
  Lift-and-project: 6
  Cover: 39
  Implied bound: 17
  Clique: 1
  MIR: 163
  StrongCG: 13
  GUB cover: 213
  Zero half: 57
  RLT: 31
  Relax-and-lift: 4

Explored 1 nodes (3084 simplex iterations) in 4.73 seconds (7.12 work units)
Thread count was 8 (of 8 available processors)

Solution count 10: 6978 6977 6970 ... 6919

Optimal solution found (tolerance 0.00e+00)
Best objective 6.978000000000e+03, best bound 6.978000000000e+03, gap 0.0000%
